# Solution for model MaxProfit
# Objective value = 2.2524934042537848e+11
I0(4) 0
I1(5) 0
I2(403) 0
I3(0) 0
I4(403) 0
I5(0) 0
I6(403) 0
I7(0) 0
I8(4) 957
I9(8) 0
I10(443) 30
I11(0) 0
I12(443) 0
I13(0) 0
I14(443) 0
I15(0) 0
I16(4) 630
I17(8) 0
I18(443) 23
I19(0) 0
I20(443) 0
I21(0) 0
I22(443) 0
I23(0) 0
I24(4) 290
I25(8) 0
I26(443) 14
I27(0) 0
I28(443) 0
I29(0) 0
I30(443) 0
I31(0) 0
I32(4) 221
I33(8) 0
I34(443) 11
I35(0) 0
I36(443) 0
I37(0) 0
I38(443) 0
I39(0) 0
I40(4) 167
I41(8) 0
I42(443) 10
I43(0) 0
I44(443) 0
I45(0) 0
I46(443) 0
I47(0) 0
I48(4) 274
I49(8) 0
I50(443) 11
I51(0) 0
I52(443) 0
I53(0) 0
I54(443) 0
I55(0) 0
I56(4) 205
I57(8) 0
I58(443) 10
I59(0) 0
I60(443) 0
I61(0) 0
I62(443) 0
I63(0) 0
I64(4) 508
I65(8) 0
I66(443) 21
I67(0) 0
I68(443) 0
I69(0) 0
I70(443) 0
I71(0) 0
I72(4) 131
I73(8) 0
I74(443) 7
I75(0) 0
I76(443) 0
I77(0) 0
I78(443) 0
I79(0) 0
I80(4) 44
I81(8) 0
I82(443) 6
I83(0) 0
I84(443) 0
I85(0) 0
I86(443) 0
I87(0) 0
I88(4) 432
I89(8) 0
I90(443) 18
I91(0) 0
I92(443) 0
I93(0) 0
I94(443) 0
I95(0) 0
I96(4) 79
I97(8) 0
I98(443) 5
I99(0) 0
I100(443) 0
I101(0) 0
I102(443) 0
I103(0) 0
I104(4) 93
I105(8) 0
I106(443) 7
I107(0) 0
I108(443) 0
I109(0) 0
I110(443) 0
I111(0) 0
I112(4) 274
I113(8) 0
I114(443) 14
I115(0) 0
I116(443) 0
I117(0) 0
I118(443) 0
I119(0) 0
I120(4) 69
I121(8) 0
I122(443) 6
I123(0) 0
I124(443) 0
I125(0) 0
I126(443) 0
I127(0) 0
I128(4) 20
I129(8) 0
I130(443) 4
I131(0) 0
I132(443) 0
I133(0) 0
I134(443) 0
I135(0) 0
I136(4) 46
I137(8) 0
I138(443) 7
I139(0) 0
I140(443) 0
I141(0) 0
I142(443) 0
I143(0) 0
I144(4) 67
I145(8) 0
I146(443) 5
I147(0) 0
I148(443) 0
I149(0) 0
I150(443) 0
I151(0) 0
I152(4) 12
I153(8) 0
I154(443) 4
I155(0) 0
I156(443) 0
I157(0) 0
I158(443) 0
I159(0) 0
I160(4) 957
I161(8) 0
I162(443) 30
I163(0) 0
I164(443) 0
I165(0) 0
I166(443) 0
I167(0) 0
I168(4) 0
I169(8) 0
I170(403) 0
I171(0) 0
I172(403) 0
I173(0) 0
I174(403) 0
I175(0) 0
I176(4) 270
I177(8) 4
I178(443) 8
I179(0) 0
I180(443) 0
I181(0) 0
I182(443) 0
I183(0) 0
I184(4) 236
I185(8) 0
I186(443) 7
I187(0) 0
I188(443) 0
I189(0) 0
I190(443) 0
I191(0) 0
I192(4) 125
I193(8) 0
I194(443) 4
I195(0) 0
I196(443) 0
I197(0) 0
I198(443) 0
I199(0) 0
I200(4) 101
I201(8) 13
I202(443) 3
I203(0) 0
I204(443) 0
I205(0) 0
I206(443) 0
I207(0) 0
I208(4) 197
I209(8) 0
I210(443) 6
I211(0) 0
I212(443) 0
I213(0) 0
I214(443) 0
I215(0) 0
I216(4) 144
I217(8) 0
I218(443) 1
I219(0) 0
I220(443) 0
I221(0) 0
I222(443) 1
I223(0) 0
I224(4) 131
I225(8) 0
I226(443) 4
I227(0) 0
I228(443) 0
I229(0) 0
I230(443) 0
I231(0) 0
I232(4) 59
I233(8) 0
I234(443) 2
I235(0) 0
I236(443) 0
I237(0) 0
I238(443) 0
I239(0) 0
I240(4) 33
I241(8) 7
I242(443) 1
I243(0) 0
I244(443) 0
I245(0) 0
I246(443) 0
I247(0) 0
I248(4) 236
I249(8) 14
I250(443) 7
I251(0) 0
I252(443) 0
I253(0) 0
I254(443) 0
I255(0) 0
I256(4) 33
I257(8) 0
I258(443) 1
I259(0) 0
I260(443) 0
I261(0) 0
I262(443) 0
I263(0) 0
I264(4) 65
I265(8) 0
I266(443) 2
I267(0) 0
I268(443) 0
I269(0) 0
I270(443) 0
I271(0) 0
I272(4) 67
I273(8) 1
I274(443) 2
I275(0) 0
I276(443) 0
I277(0) 0
I278(443) 0
I279(0) 0
I280(4) 33
I281(8) 0
I282(443) 1
I283(0) 0
I284(443) 0
I285(0) 0
I286(443) 0
I287(0) 0
I288(4) 24
I289(8) 0
I290(443) 1
I291(0) 0
I292(443) 0
I293(0) 0
I294(443) 0
I295(0) 0
I296(4) 32
I297(8) 0
I298(443) 1
I299(0) 0
I300(443) 0
I301(0) 0
I302(443) 0
I303(0) 0
I304(4) 33
I305(8) 10
I306(443) 1
I307(0) 0
I308(443) 0
I309(0) 0
I310(443) 0
I311(0) 0
I312(4) 23
I313(8) 0
I314(443) 1
I315(0) 0
I316(443) 0
I317(0) 0
I318(443) 0
I319(0) 0
I320(4) 630
I321(8) 0
I322(443) 24
I323(0) 0
I324(443) 0
I325(0) 0
I326(443) 0
I327(0) 0
I328(4) 270
I329(8) 4
I330(443) 8
I331(0) 0
I332(443) 0
I333(0) 0
I334(443) 0
I335(0) 0
I336(4) 0
I337(8) 0
I338(403) 0
I339(0) 0
I340(403) 0
I341(0) 0
I342(403) 0
I343(0) 0
I344(4) 189
I345(8) 0
I346(443) 6
I347(0) 0
I348(443) 0
I349(0) 0
I350(443) 0
I351(0) 0
I352(4) 67
I353(8) 11
I354(443) 2
I355(0) 0
I356(443) 0
I357(0) 0
I358(443) 0
I359(0) 0
I360(4) 33
I361(8) 9
I362(443) 1
I363(0) 0
I364(443) 0
I365(0) 0
I366(443) 0
I367(0) 0
I368(4) 151
I369(8) 0
I370(443) 5
I371(0) 0
I372(443) 0
I373(0) 0
I374(443) 0
I375(0) 0
I376(4) 67
I377(8) 24
I378(443) 2
I379(0) 0
I380(443) 0
I381(0) 0
I382(443) 0
I383(0) 0
I384(4) 67
I385(8) 28
I386(443) 2
I387(0) 0
I388(443) 0
I389(0) 0
I390(443) 0
I391(0) 0
I392(4) 66
I393(8) 0
I394(443) 2
I395(0) 0
I396(443) 0
I397(0) 0
I398(443) 0
I399(0) 0
I400(4) 0
I401(8) 23
I402(443) 0
I403(0) 0
I404(443) 0
I405(0) 0
I406(443) 0
I407(0) 0
I408(4) 236
I409(8) 12
I410(443) 7
I411(0) 0
I412(443) 0
I413(0) 0
I414(443) 0
I415(0) 0
I416(4) 33
I417(8) 5
I418(443) 1
I419(0) 0
I420(443) 0
I421(0) 0
I422(443) 0
I423(0) 0
I424(4) 33
I425(8) 10
I426(443) 1
I427(0) 0
I428(443) 0
I429(0) 0
I430(443) 0
I431(0) 0
I432(4) 65
I433(8) 0
I434(443) 2
I435(0) 0
I436(443) 0
I437(0) 0
I438(443) 0
I439(0) 0
I440(4) 0
I441(8) 19
I442(443) 0
I443(0) 0
I444(443) 0
I445(0) 0
I446(443) 0
I447(0) 0
I448(4) 0
I449(8) 5
I450(443) 0
I451(0) 0
I452(443) 0
I453(0) 0
I454(443) 0
I455(0) 0
I456(4) 0
I457(8) 3
I458(443) 0
I459(0) 0
I460(443) 0
I461(0) 0
I462(443) 0
I463(0) 0
I464(4) 33
I465(8) 2
I466(443) 1
I467(0) 0
I468(443) 0
I469(0) 0
I470(443) 0
I471(0) 0
I472(4) 0
I473(8) 13
I474(443) 0
I475(0) 0
I476(443) 0
I477(0) 0
I478(443) 0
I479(0) 0
I480(4) 290
I481(8) 0
I482(443) 14
I483(0) 0
I484(443) 0
I485(0) 0
I486(443) 0
I487(0) 0
I488(4) 236
I489(8) 0
I490(443) 7
I491(0) 0
I492(443) 0
I493(0) 0
I494(443) 0
I495(0) 0
I496(4) 189
I497(8) 0
I498(443) 6
I499(0) 0
I500(443) 0
I501(0) 0
I502(443) 0
I503(0) 0
I504(4) 0
I505(8) 0
I506(403) 0
I507(0) 0
I508(403) 0
I509(0) 0
I510(403) 0
I511(0) 0
I512(4) 37
I513(8) 24
I514(443) 2
I515(0) 0
I516(443) 0
I517(0) 0
I518(443) 0
I519(0) 0
I520(4) 33
I521(8) 9
I522(443) 1
I523(0) 0
I524(443) 0
I525(0) 0
I526(443) 0
I527(0) 0
I528(4) 313
I529(8) 0
I530(443) 6
I531(0) 0
I532(443) 0
I533(0) 0
I534(443) 1
I535(0) 0
I536(4) 67
I537(8) 14
I538(443) 2
I539(0) 0
I540(443) 0
I541(0) 0
I542(443) 0
I543(0) 0
I544(4) 33
I545(8) 12
I546(443) 1
I547(0) 0
I548(443) 0
I549(0) 0
I550(443) 0
I551(0) 0
I552(4) 33
I553(8) 19
I554(443) 1
I555(0) 0
I556(443) 0
I557(0) 0
I558(443) 0
I559(0) 0
I560(4) 0
I561(8) 17
I562(443) 0
I563(0) 0
I564(443) 0
I565(0) 0
I566(443) 0
I567(0) 0
I568(4) 310
I569(8) 0
I570(443) 6
I571(0) 0
I572(443) 0
I573(0) 0
I574(443) 1
I575(0) 0
I576(4) 33
I577(8) 14
I578(443) 1
I579(0) 0
I580(443) 0
I581(0) 0
I582(443) 0
I583(0) 0
I584(4) 64
I585(8) 0
I586(443) 2
I587(0) 0
I588(443) 0
I589(0) 0
I590(443) 0
I591(0) 0
I592(4) 33
I593(8) 21
I594(443) 1
I595(0) 0
I596(443) 0
I597(0) 0
I598(443) 0
I599(0) 0
I600(4) 33
I601(8) 3
I602(443) 1
I603(0) 0
I604(443) 0
I605(0) 0
I606(443) 0
I607(0) 0
I608(4) 0
I609(8) 1
I610(443) 0
I611(0) 0
I612(443) 0
I613(0) 0
I614(443) 0
I615(0) 0
I616(4) 0
I617(8) 21
I618(443) 0
I619(0) 0
I620(443) 0
I621(0) 0
I622(443) 0
I623(0) 0
I624(4) 33
I625(8) 7
I626(443) 1
I627(0) 0
I628(443) 0
I629(0) 0
I630(443) 0
I631(0) 0
I632(4) 0
I633(8) 1
I634(443) 0
I635(0) 0
I636(443) 0
I637(0) 0
I638(443) 0
I639(0) 0
I640(4) 221
I641(8) 0
I642(443) 11
I643(0) 0
I644(443) 0
I645(0) 0
I646(443) 0
I647(0) 0
I648(4) 125
I649(8) 0
I650(443) 4
I651(0) 0
I652(443) 0
I653(0) 0
I654(443) 0
I655(0) 0
I656(4) 67
I657(8) 11
I658(443) 2
I659(0) 0
I660(443) 0
I661(0) 0
I662(443) 0
I663(0) 0
I664(4) 36
I665(8) 25
I666(443) 2
I667(0) 0
I668(443) 0
I669(0) 0
I670(443) 0
I671(0) 0
I672(4) 0
I673(8) 0
I674(403) 0
I675(0) 0
I676(403) 0
I677(0) 0
I678(403) 0
I679(0) 0
I680(4) 219
I681(8) 0
I682(443) 7
I683(0) 0
I684(443) 0
I685(0) 0
I686(443) 0
I687(0) 0
I688(4) 67
I689(8) 17
I690(443) 2
I691(0) 0
I692(443) 0
I693(0) 0
I694(443) 0
I695(0) 0
I696(4) 97
I697(8) 0
I698(443) 3
I699(0) 0
I700(443) 0
I701(0) 0
I702(443) 0
I703(0) 0
I704(4) 67
I705(8) 14
I706(443) 2
I707(0) 0
I708(443) 0
I709(0) 0
I710(443) 0
I711(0) 0
I712(4) 33
I713(8) 1
I714(443) 1
I715(0) 0
I716(443) 0
I717(0) 0
I718(443) 0
I719(0) 0
I720(4) 118
I721(8) 0
I722(443) 4
I723(0) 0
I724(443) 0
I725(0) 0
I726(443) 0
I727(0) 0
I728(4) 101
I729(8) 10
I730(443) 3
I731(0) 0
I732(443) 0
I733(0) 0
I734(443) 0
I735(0) 0
I736(4) 0
I737(8) 19
I738(443) 0
I739(0) 0
I740(443) 0
I741(0) 0
I742(443) 0
I743(0) 0
I744(4) 29
I745(8) 0
I746(443) 1
I747(0) 0
I748(443) 0
I749(0) 0
I750(443) 0
I751(0) 0
I752(4) 33
I753(8) 15
I754(443) 1
I755(0) 0
I756(443) 0
I757(0) 0
I758(443) 0
I759(0) 0
I760(4) 32
I761(8) 0
I762(443) 1
I763(0) 0
I764(443) 0
I765(0) 0
I766(443) 0
I767(0) 0
I768(4) 0
I769(8) 21
I770(443) 0
I771(0) 0
I772(443) 0
I773(0) 0
I774(443) 0
I775(0) 0
I776(4) 0
I777(8) 17
I778(443) 0
I779(0) 0
I780(443) 0
I781(0) 0
I782(443) 0
I783(0) 0
I784(4) 51
I785(8) 0
I786(443) 2
I787(0) 0
I788(443) 0
I789(0) 0
I790(443) 0
I791(0) 0
I792(4) 23
I793(8) 0
I794(443) 1
I795(0) 0
I796(443) 0
I797(0) 0
I798(443) 0
I799(0) 0
I800(4) 167
I801(8) 0
I802(443) 10
I803(0) 0
I804(443) 0
I805(0) 0
I806(443) 0
I807(0) 0
I808(4) 101
I809(8) 13
I810(443) 3
I811(0) 0
I812(443) 0
I813(0) 0
I814(443) 0
I815(0) 0
I816(4) 33
I817(8) 9
I818(443) 1
I819(0) 0
I820(443) 0
I821(0) 0
I822(443) 0
I823(0) 0
I824(4) 33
I825(8) 9
I826(443) 1
I827(0) 0
I828(443) 0
I829(0) 0
I830(443) 0
I831(0) 0
I832(4) 219
I833(8) 0
I834(443) 7
I835(0) 0
I836(443) 0
I837(0) 0
I838(443) 0
I839(0) 0
I840(4) 0
I841(8) 0
I842(403) 0
I843(0) 0
I844(403) 0
I845(0) 0
I846(403) 0
I847(0) 0
I848(4) 67
I849(8) 9
I850(443) 2
I851(0) 0
I852(443) 0
I853(0) 0
I854(443) 0
I855(0) 0
I856(4) 140
I857(8) 0
I858(443) 0
I859(0) 0
I860(443) 0
I861(0) 0
I862(443) 2
I863(0) 0
I864(4) 33
I865(8) 17
I866(443) 1
I867(0) 0
I868(443) 0
I869(0) 0
I870(443) 0
I871(0) 0
I872(4) 0
I873(8) 22
I874(443) 0
I875(0) 0
I876(443) 0
I877(0) 0
I878(443) 0
I879(0) 0
I880(4) 28
I881(8) 0
I882(443) 1
I883(0) 0
I884(443) 0
I885(0) 0
I886(443) 0
I887(0) 0
I888(4) 67
I889(8) 18
I890(443) 2
I891(0) 0
I892(443) 0
I893(0) 0
I894(443) 0
I895(0) 0
I896(4) 0
I897(8) 9
I898(443) 0
I899(0) 0
I900(443) 0
I901(0) 0
I902(443) 0
I903(0) 0
I904(4) 0
I905(8) 11
I906(443) 0
I907(0) 0
I908(443) 0
I909(0) 0
I910(443) 0
I911(0) 0
I912(4) 0
I913(8) 17
I914(443) 0
I915(0) 0
I916(443) 0
I917(0) 0
I918(443) 0
I919(0) 0
I920(4) 32
I921(8) 0
I922(443) 1
I923(0) 0
I924(443) 0
I925(0) 0
I926(443) 0
I927(0) 0
I928(4) 0
I929(8) 16
I930(443) 0
I931(0) 0
I932(443) 0
I933(0) 0
I934(443) 0
I935(0) 0
I936(4) 0
I937(8) 9
I938(443) 0
I939(0) 0
I940(443) 0
I941(0) 0
I942(443) 0
I943(0) 0
I944(4) 53
I945(8) 0
I946(443) 2
I947(0) 0
I948(443) 0
I949(0) 0
I950(443) 0
I951(0) 0
I952(4) 0
I953(8) 1
I954(443) 0
I955(0) 0
I956(443) 0
I957(0) 0
I958(443) 0
I959(0) 0
I960(4) 274
I961(8) 0
I962(443) 11
I963(0) 0
I964(443) 0
I965(0) 0
I966(443) 0
I967(0) 0
I968(4) 197
I969(8) 0
I970(443) 6
I971(0) 0
I972(443) 0
I973(0) 0
I974(443) 0
I975(0) 0
I976(4) 151
I977(8) 0
I978(443) 5
I979(0) 0
I980(443) 0
I981(0) 0
I982(443) 0
I983(0) 0
I984(4) 313
I985(8) 0
I986(443) 6
I987(0) 0
I988(443) 0
I989(0) 0
I990(443) 1
I991(0) 0
I992(4) 67
I993(8) 17
I994(443) 2
I995(0) 0
I996(443) 0
I997(0) 0
I998(443) 0
I999(0) 0
I1000(4) 67
I1001(8) 9
I1002(443) 2
I1003(0) 0
I1004(443) 0
I1005(0) 0
I1006(443) 0
I1007(0) 0
I1008(4) 0
I1009(8) 0
I1010(403) 0
I1011(0) 0
I1012(403) 0
I1013(0) 0
I1014(403) 0
I1015(0) 0
I1016(4) 176
I1017(8) 0
I1018(443) 2
I1019(0) 0
I1020(443) 0
I1021(0) 0
I1022(443) 1
I1023(0) 0
I1024(4) 67
I1025(8) 6
I1026(443) 2
I1027(0) 0
I1028(443) 0
I1029(0) 0
I1030(443) 0
I1031(0) 0
I1032(4) 67
I1033(8) 1
I1034(443) 2
I1035(0) 0
I1036(443) 0
I1037(0) 0
I1038(443) 0
I1039(0) 0
I1040(4) 0
I1041(8) 13
I1042(443) 0
I1043(0) 0
I1044(443) 0
I1045(0) 0
I1046(443) 0
I1047(0) 0
I1048(4) 385
I1049(8) 0
I1050(443) 12
I1051(0) 0
I1052(443) 0
I1053(0) 0
I1054(443) 0
I1055(0) 0
I1056(4) 33
I1057(8) 5
I1058(443) 1
I1059(0) 0
I1060(443) 0
I1061(0) 0
I1062(443) 0
I1063(0) 0
I1064(4) 80
I1065(8) 0
I1066(443) 3
I1067(0) 0
I1068(443) 0
I1069(0) 0
I1070(443) 0
I1071(0) 0
I1072(4) 31
I1073(8) 0
I1074(443) 1
I1075(0) 0
I1076(443) 0
I1077(0) 0
I1078(443) 0
I1079(0) 0
I1080(4) 50
I1081(8) 0
I1082(443) 2
I1083(0) 0
I1084(443) 0
I1085(0) 0
I1086(443) 0
I1087(0) 0
I1088(4) 0
I1089(8) 8
I1090(443) 0
I1091(0) 0
I1092(443) 0
I1093(0) 0
I1094(443) 0
I1095(0) 0
I1096(4) 0
I1097(8) 9
I1098(443) 0
I1099(0) 0
I1100(443) 0
I1101(0) 0
I1102(443) 0
I1103(0) 0
I1104(4) 33
I1105(8) 14
I1106(443) 1
I1107(0) 0
I1108(443) 0
I1109(0) 0
I1110(443) 0
I1111(0) 0
I1112(4) 0
I1113(8) 11
I1114(443) 0
I1115(0) 0
I1116(443) 0
I1117(0) 0
I1118(443) 0
I1119(0) 0
I1120(4) 205
I1121(8) 0
I1122(443) 10
I1123(0) 0
I1124(443) 0
I1125(0) 0
I1126(443) 0
I1127(0) 0
I1128(4) 144
I1129(8) 0
I1130(443) 1
I1131(0) 0
I1132(443) 0
I1133(0) 0
I1134(443) 1
I1135(0) 0
I1136(4) 91
I1137(8) 0
I1138(443) 3
I1139(0) 0
I1140(443) 0
I1141(0) 0
I1142(443) 0
I1143(0) 0
I1144(4) 67
I1145(8) 14
I1146(443) 2
I1147(0) 0
I1148(443) 0
I1149(0) 0
I1150(443) 0
I1151(0) 0
I1152(4) 97
I1153(8) 0
I1154(443) 3
I1155(0) 0
I1156(443) 0
I1157(0) 0
I1158(443) 0
I1159(0) 0
I1160(4) 140
I1161(8) 0
I1162(443) 0
I1163(0) 0
I1164(443) 0
I1165(0) 0
I1166(443) 2
I1167(0) 0
I1168(4) 176
I1169(8) 0
I1170(443) 2
I1171(0) 0
I1172(443) 0
I1173(0) 0
I1174(443) 1
I1175(0) 0
I1176(4) 0
I1177(8) 0
I1178(403) 0
I1179(0) 0
I1180(403) 0
I1181(0) 0
I1182(403) 0
I1183(0) 0
I1184(4) 33
I1185(8) 4
I1186(443) 1
I1187(0) 0
I1188(443) 0
I1189(0) 0
I1190(443) 0
I1191(0) 0
I1192(4) 66
I1193(8) 0
I1194(443) 2
I1195(0) 0
I1196(443) 0
I1197(0) 0
I1198(443) 0
I1199(0) 0
I1200(4) 33
I1201(8) 1
I1202(443) 1
I1203(0) 0
I1204(443) 0
I1205(0) 0
I1206(443) 0
I1207(0) 0
I1208(4) 168
I1209(8) 2
I1210(443) 5
I1211(0) 0
I1212(443) 0
I1213(0) 0
I1214(443) 0
I1215(0) 0
I1216(4) 33
I1217(8) 0
I1218(443) 1
I1219(0) 0
I1220(443) 0
I1221(0) 0
I1222(443) 0
I1223(0) 0
I1224(4) 33
I1225(8) 15
I1226(443) 1
I1227(0) 0
I1228(443) 0
I1229(0) 0
I1230(443) 0
I1231(0) 0
I1232(4) 0
I1233(8) 34
I1234(443) 0
I1235(0) 0
I1236(443) 0
I1237(0) 0
I1238(443) 0
I1239(0) 0
I1240(4) 48
I1241(8) 0
I1242(443) 2
I1243(0) 0
I1244(443) 0
I1245(0) 0
I1246(443) 0
I1247(0) 0
I1248(4) 12
I1249(8) 0
I1250(443) 1
I1251(0) 0
I1252(443) 0
I1253(0) 0
I1254(443) 0
I1255(0) 0
I1256(4) 0
I1257(8) 24
I1258(443) 0
I1259(0) 0
I1260(443) 0
I1261(0) 0
I1262(443) 0
I1263(0) 0
I1264(4) 208
I1265(8) 0
I1266(443) 3
I1267(0) 0
I1268(443) 0
I1269(0) 0
I1270(443) 1
I1271(0) 0
I1272(4) 0
I1273(8) 18
I1274(443) 0
I1275(0) 0
I1276(443) 0
I1277(0) 0
I1278(443) 0
I1279(0) 0
I1280(4) 508
I1281(8) 0
I1282(443) 21
I1283(0) 0
I1284(443) 0
I1285(0) 0
I1286(443) 0
I1287(0) 0
I1288(4) 131
I1289(8) 0
I1290(443) 4
I1291(0) 0
I1292(443) 0
I1293(0) 0
I1294(443) 0
I1295(0) 0
I1296(4) 67
I1297(8) 28
I1298(443) 2
I1299(0) 0
I1300(443) 0
I1301(0) 0
I1302(443) 0
I1303(0) 0
I1304(4) 33
I1305(8) 12
I1306(443) 1
I1307(0) 0
I1308(443) 0
I1309(0) 0
I1310(443) 0
I1311(0) 0
I1312(4) 67
I1313(8) 14
I1314(443) 2
I1315(0) 0
I1316(443) 0
I1317(0) 0
I1318(443) 0
I1319(0) 0
I1320(4) 33
I1321(8) 17
I1322(443) 1
I1323(0) 0
I1324(443) 0
I1325(0) 0
I1326(443) 0
I1327(0) 0
I1328(4) 67
I1329(8) 6
I1330(443) 2
I1331(0) 0
I1332(443) 0
I1333(0) 0
I1334(443) 0
I1335(0) 0
I1336(4) 33
I1337(8) 4
I1338(443) 1
I1339(0) 0
I1340(443) 0
I1341(0) 0
I1342(443) 0
I1343(0) 0
I1344(4) 0
I1345(8) 0
I1346(403) 0
I1347(0) 0
I1348(403) 0
I1349(0) 0
I1350(403) 0
I1351(0) 0
I1352(4) 30
I1353(8) 0
I1354(443) 1
I1355(0) 0
I1356(443) 0
I1357(0) 0
I1358(443) 0
I1359(0) 0
I1360(4) 0
I1361(8) 23
I1362(443) 0
I1363(0) 0
I1364(443) 0
I1365(0) 0
I1366(443) 0
I1367(0) 0
I1368(4) 67
I1369(8) 29
I1370(443) 2
I1371(0) 0
I1372(443) 0
I1373(0) 0
I1374(443) 0
I1375(0) 0
I1376(4) 33
I1377(8) 9
I1378(443) 1
I1379(0) 0
I1380(443) 0
I1381(0) 0
I1382(443) 0
I1383(0) 0
I1384(4) 0
I1385(8) 27
I1386(443) 0
I1387(0) 0
I1388(443) 0
I1389(0) 0
I1390(443) 0
I1391(0) 0
I1392(4) 181
I1393(8) 0
I1394(443) 6
I1395(0) 0
I1396(443) 0
I1397(0) 0
I1398(443) 0
I1399(0) 0
I1400(4) 0
I1401(8) 13
I1402(443) 0
I1403(0) 0
I1404(443) 0
I1405(0) 0
I1406(443) 0
I1407(0) 0
I1408(4) 0
I1409(8) 3
I1410(443) 0
I1411(0) 0
I1412(443) 0
I1413(0) 0
I1414(443) 0
I1415(0) 0
I1416(4) 0
I1417(8) 11
I1418(443) 0
I1419(0) 0
I1420(443) 0
I1421(0) 0
I1422(443) 0
I1423(0) 0
I1424(4) 33
I1425(8) 2
I1426(443) 1
I1427(0) 0
I1428(443) 0
I1429(0) 0
I1430(443) 0
I1431(0) 0
I1432(4) 0
I1433(8) 1
I1434(443) 0
I1435(0) 0
I1436(443) 0
I1437(0) 0
I1438(443) 0
I1439(0) 0
I1440(4) 131
I1441(8) 0
I1442(443) 7
I1443(0) 0
I1444(443) 0
I1445(0) 0
I1446(443) 0
I1447(0) 0
I1448(4) 59
I1449(8) 0
I1450(443) 2
I1451(0) 0
I1452(443) 0
I1453(0) 0
I1454(443) 0
I1455(0) 0
I1456(4) 66
I1457(8) 0
I1458(443) 2
I1459(0) 0
I1460(443) 0
I1461(0) 0
I1462(443) 0
I1463(0) 0
I1464(4) 33
I1465(8) 19
I1466(443) 1
I1467(0) 0
I1468(443) 0
I1469(0) 0
I1470(443) 0
I1471(0) 0
I1472(4) 33
I1473(8) 1
I1474(443) 1
I1475(0) 0
I1476(443) 0
I1477(0) 0
I1478(443) 0
I1479(0) 0
I1480(4) 0
I1481(8) 22
I1482(443) 0
I1483(0) 0
I1484(443) 0
I1485(0) 0
I1486(443) 0
I1487(0) 0
I1488(4) 67
I1489(8) 1
I1490(443) 2
I1491(0) 0
I1492(443) 0
I1493(0) 0
I1494(443) 0
I1495(0) 0
I1496(4) 66
I1497(8) 0
I1498(443) 2
I1499(0) 0
I1500(443) 0
I1501(0) 0
I1502(443) 0
I1503(0) 0
I1504(4) 30
I1505(8) 0
I1506(443) 1
I1507(0) 0
I1508(443) 0
I1509(0) 0
I1510(443) 0
I1511(0) 0
I1512(4) 0
I1513(8) 0
I1514(403) 0
I1515(0) 0
I1516(403) 0
I1517(0) 0
I1518(403) 0
I1519(0) 0
I1520(4) 0
I1521(8) 1
I1522(443) 0
I1523(0) 0
I1524(443) 0
I1525(0) 0
I1526(443) 0
I1527(0) 0
I1528(4) 187
I1529(8) 0
I1530(443) 6
I1531(0) 0
I1532(443) 0
I1533(0) 0
I1534(443) 0
I1535(0) 0
I1536(4) 174
I1537(8) 0
I1538(443) 2
I1539(0) 0
I1540(443) 0
I1541(0) 0
I1542(443) 1
I1543(0) 0
I1544(4) 52
I1545(8) 0
I1546(443) 2
I1547(0) 0
I1548(443) 0
I1549(0) 0
I1550(443) 0
I1551(0) 0
I1552(4) 33
I1553(8) 6
I1554(443) 1
I1555(0) 0
I1556(443) 0
I1557(0) 0
I1558(443) 0
I1559(0) 0
I1560(4) 0
I1561(8) 16
I1562(443) 0
I1563(0) 0
I1564(443) 0
I1565(0) 0
I1566(443) 0
I1567(0) 0
I1568(4) 0
I1569(8) 3
I1570(443) 0
I1571(0) 0
I1572(443) 0
I1573(0) 0
I1574(443) 0
I1575(0) 0
I1576(4) 0
I1577(8) 15
I1578(443) 0
I1579(0) 0
I1580(443) 0
I1581(0) 0
I1582(443) 0
I1583(0) 0
I1584(4) 0
I1585(8) 8
I1586(443) 0
I1587(0) 0
I1588(443) 0
I1589(0) 0
I1590(443) 0
I1591(0) 0
I1592(4) 0
I1593(8) 1
I1594(443) 0
I1595(0) 0
I1596(443) 0
I1597(0) 0
I1598(443) 0
I1599(0) 0
I1600(4) 44
I1601(8) 0
I1602(443) 6
I1603(0) 0
I1604(443) 0
I1605(0) 0
I1606(443) 0
I1607(0) 0
I1608(4) 33
I1609(8) 7
I1610(443) 1
I1611(0) 0
I1612(443) 0
I1613(0) 0
I1614(443) 0
I1615(0) 0
I1616(4) 0
I1617(8) 23
I1618(443) 0
I1619(0) 0
I1620(443) 0
I1621(0) 0
I1622(443) 0
I1623(0) 0
I1624(4) 0
I1625(8) 17
I1626(443) 0
I1627(0) 0
I1628(443) 0
I1629(0) 0
I1630(443) 0
I1631(0) 0
I1632(4) 118
I1633(8) 0
I1634(443) 4
I1635(0) 0
I1636(443) 0
I1637(0) 0
I1638(443) 0
I1639(0) 0
I1640(4) 28
I1641(8) 0
I1642(443) 1
I1643(0) 0
I1644(443) 0
I1645(0) 0
I1646(443) 0
I1647(0) 0
I1648(4) 0
I1649(8) 13
I1650(443) 0
I1651(0) 0
I1652(443) 0
I1653(0) 0
I1654(443) 0
I1655(0) 0
I1656(4) 33
I1657(8) 1
I1658(443) 1
I1659(0) 0
I1660(443) 0
I1661(0) 0
I1662(443) 0
I1663(0) 0
I1664(4) 0
I1665(8) 23
I1666(443) 0
I1667(0) 0
I1668(443) 0
I1669(0) 0
I1670(443) 0
I1671(0) 0
I1672(4) 0
I1673(8) 1
I1674(443) 0
I1675(0) 0
I1676(443) 0
I1677(0) 0
I1678(443) 0
I1679(0) 0
I1680(4) 0
I1681(8) 0
I1682(403) 0
I1683(0) 0
I1684(403) 0
I1685(0) 0
I1686(403) 0
I1687(0) 0
I1688(4) 0
I1689(8) 18
I1690(443) 0
I1691(0) 0
I1692(443) 0
I1693(0) 0
I1694(443) 0
I1695(0) 0
I1696(4) 0
I1697(8) 7
I1698(443) 0
I1699(0) 0
I1700(443) 0
I1701(0) 0
I1702(443) 0
I1703(0) 0
I1704(4) 0
I1705(8) 1
I1706(443) 0
I1707(0) 0
I1708(443) 0
I1709(0) 0
I1710(443) 0
I1711(0) 0
I1712(4) 0
I1713(8) 11
I1714(443) 0
I1715(0) 0
I1716(443) 0
I1717(0) 0
I1718(443) 0
I1719(0) 0
I1720(4) 0
I1721(8) 19
I1722(443) 0
I1723(0) 0
I1724(443) 0
I1725(0) 0
I1726(443) 0
I1727(0) 0
I1728(4) 0
I1729(8) 15
I1730(443) 0
I1731(0) 0
I1732(443) 0
I1733(0) 0
I1734(443) 0
I1735(0) 0
I1736(4) 0
I1737(8) 1
I1738(443) 0
I1739(0) 0
I1740(443) 0
I1741(0) 0
I1742(443) 0
I1743(0) 0
I1744(4) 19
I1745(8) 0
I1746(443) 1
I1747(0) 0
I1748(443) 0
I1749(0) 0
I1750(443) 0
I1751(0) 0
I1752(4) 26
I1753(8) 0
I1754(443) 1
I1755(0) 0
I1756(443) 0
I1757(0) 0
I1758(443) 0
I1759(0) 0
I1760(4) 432
I1761(8) 0
I1762(443) 18
I1763(0) 0
I1764(443) 0
I1765(0) 0
I1766(443) 0
I1767(0) 0
I1768(4) 236
I1769(8) 14
I1770(443) 7
I1771(0) 0
I1772(443) 0
I1773(0) 0
I1774(443) 0
I1775(0) 0
I1776(4) 236
I1777(8) 12
I1778(443) 7
I1779(0) 0
I1780(443) 0
I1781(0) 0
I1782(443) 0
I1783(0) 0
I1784(4) 310
I1785(8) 0
I1786(443) 6
I1787(0) 0
I1788(443) 0
I1789(0) 0
I1790(443) 1
I1791(0) 0
I1792(4) 101
I1793(8) 10
I1794(443) 3
I1795(0) 0
I1796(443) 0
I1797(0) 0
I1798(443) 0
I1799(0) 0
I1800(4) 67
I1801(8) 18
I1802(443) 2
I1803(0) 0
I1804(443) 0
I1805(0) 0
I1806(443) 0
I1807(0) 0
I1808(4) 385
I1809(8) 0
I1810(443) 12
I1811(0) 0
I1812(443) 0
I1813(0) 0
I1814(443) 0
I1815(0) 0
I1816(4) 168
I1817(8) 2
I1818(443) 5
I1819(0) 0
I1820(443) 0
I1821(0) 0
I1822(443) 0
I1823(0) 0
I1824(4) 67
I1825(8) 29
I1826(443) 2
I1827(0) 0
I1828(443) 0
I1829(0) 0
I1830(443) 0
I1831(0) 0
I1832(4) 187
I1833(8) 0
I1834(443) 6
I1835(0) 0
I1836(443) 0
I1837(0) 0
I1838(443) 0
I1839(0) 0
I1840(4) 0
I1841(8) 18
I1842(443) 0
I1843(0) 0
I1844(443) 0
I1845(0) 0
I1846(443) 0
I1847(0) 0
I1848(4) 0
I1849(8) 0
I1850(403) 0
I1851(0) 0
I1852(403) 0
I1853(0) 0
I1854(403) 0
I1855(0) 0
I1856(4) 112
I1857(8) 0
I1858(443) 0
I1859(0) 0
I1860(443) 0
I1861(0) 0
I1862(443) 1
I1863(0) 0
I1864(4) 205
I1865(8) 0
I1866(443) 3
I1867(0) 0
I1868(443) 0
I1869(0) 0
I1870(443) 1
I1871(0) 0
I1872(4) 67
I1873(8) 12
I1874(443) 2
I1875(0) 0
I1876(443) 0
I1877(0) 0
I1878(443) 0
I1879(0) 0
I1880(4) 67
I1881(8) 7
I1882(443) 2
I1883(0) 0
I1884(443) 0
I1885(0) 0
I1886(443) 0
I1887(0) 0
I1888(4) 0
I1889(8) 12
I1890(443) 0
I1891(0) 0
I1892(443) 0
I1893(0) 0
I1894(443) 0
I1895(0) 0
I1896(4) 33
I1897(8) 5
I1898(443) 1
I1899(0) 0
I1900(443) 0
I1901(0) 0
I1902(443) 0
I1903(0) 0
I1904(4) 67
I1905(8) 0
I1906(443) 2
I1907(0) 0
I1908(443) 0
I1909(0) 0
I1910(443) 0
I1911(0) 0
I1912(4) 0
I1913(8) 12
I1914(443) 0
I1915(0) 0
I1916(443) 0
I1917(0) 0
I1918(443) 0
I1919(0) 0
I1920(4) 79
I1921(8) 0
I1922(443) 5
I1923(0) 0
I1924(443) 0
I1925(0) 0
I1926(443) 0
I1927(0) 0
I1928(4) 33
I1929(8) 0
I1930(443) 1
I1931(0) 0
I1932(443) 0
I1933(0) 0
I1934(443) 0
I1935(0) 0
I1936(4) 33
I1937(8) 5
I1938(443) 1
I1939(0) 0
I1940(443) 0
I1941(0) 0
I1942(443) 0
I1943(0) 0
I1944(4) 33
I1945(8) 14
I1946(443) 1
I1947(0) 0
I1948(443) 0
I1949(0) 0
I1950(443) 0
I1951(0) 0
I1952(4) 0
I1953(8) 19
I1954(443) 0
I1955(0) 0
I1956(443) 0
I1957(0) 0
I1958(443) 0
I1959(0) 0
I1960(4) 0
I1961(8) 9
I1962(443) 0
I1963(0) 0
I1964(443) 0
I1965(0) 0
I1966(443) 0
I1967(0) 0
I1968(4) 33
I1969(8) 5
I1970(443) 1
I1971(0) 0
I1972(443) 0
I1973(0) 0
I1974(443) 0
I1975(0) 0
I1976(4) 33
I1977(8) 0
I1978(443) 1
I1979(0) 0
I1980(443) 0
I1981(0) 0
I1982(443) 0
I1983(0) 0
I1984(4) 33
I1985(8) 9
I1986(443) 1
I1987(0) 0
I1988(443) 0
I1989(0) 0
I1990(443) 0
I1991(0) 0
I1992(4) 174
I1993(8) 0
I1994(443) 2
I1995(0) 0
I1996(443) 0
I1997(0) 0
I1998(443) 1
I1999(0) 0
I2000(4) 0
I2001(8) 7
I2002(443) 0
I2003(0) 0
I2004(443) 0
I2005(0) 0
I2006(443) 0
I2007(0) 0
I2008(4) 112
I2009(8) 0
I2010(443) 0
I2011(0) 0
I2012(443) 0
I2013(0) 0
I2014(443) 1
I2015(0) 0
I2016(4) 0
I2017(8) 0
I2018(403) 0
I2019(0) 0
I2020(403) 0
I2021(0) 0
I2022(403) 0
I2023(0) 0
I2024(4) 33
I2025(8) 10
I2026(443) 1
I2027(0) 0
I2028(443) 0
I2029(0) 0
I2030(443) 0
I2031(0) 0
I2032(4) 33
I2033(8) 2
I2034(443) 1
I2035(0) 0
I2036(443) 0
I2037(0) 0
I2038(443) 0
I2039(0) 0
I2040(4) 27
I2041(8) 0
I2042(443) 1
I2043(0) 0
I2044(443) 0
I2045(0) 0
I2046(443) 0
I2047(0) 0
I2048(4) 0
I2049(8) 3
I2050(443) 0
I2051(0) 0
I2052(443) 0
I2053(0) 0
I2054(443) 0
I2055(0) 0
I2056(4) 0
I2057(8) 1
I2058(443) 0
I2059(0) 0
I2060(443) 0
I2061(0) 0
I2062(443) 0
I2063(0) 0
I2064(4) 0
I2065(8) 3
I2066(443) 0
I2067(0) 0
I2068(443) 0
I2069(0) 0
I2070(443) 0
I2071(0) 0
I2072(4) 0
I2073(8) 1
I2074(443) 0
I2075(0) 0
I2076(443) 0
I2077(0) 0
I2078(443) 0
I2079(0) 0
I2080(4) 93
I2081(8) 0
I2082(443) 7
I2083(0) 0
I2084(443) 0
I2085(0) 0
I2086(443) 0
I2087(0) 0
I2088(4) 65
I2089(8) 0
I2090(443) 2
I2091(0) 0
I2092(443) 0
I2093(0) 0
I2094(443) 0
I2095(0) 0
I2096(4) 33
I2097(8) 10
I2098(443) 1
I2099(0) 0
I2100(443) 0
I2101(0) 0
I2102(443) 0
I2103(0) 0
I2104(4) 64
I2105(8) 0
I2106(443) 2
I2107(0) 0
I2108(443) 0
I2109(0) 0
I2110(443) 0
I2111(0) 0
I2112(4) 29
I2113(8) 0
I2114(443) 1
I2115(0) 0
I2116(443) 0
I2117(0) 0
I2118(443) 0
I2119(0) 0
I2120(4) 0
I2121(8) 11
I2122(443) 0
I2123(0) 0
I2124(443) 0
I2125(0) 0
I2126(443) 0
I2127(0) 0
I2128(4) 80
I2129(8) 0
I2130(443) 3
I2131(0) 0
I2132(443) 0
I2133(0) 0
I2134(443) 0
I2135(0) 0
I2136(4) 33
I2137(8) 15
I2138(443) 1
I2139(0) 0
I2140(443) 0
I2141(0) 0
I2142(443) 0
I2143(0) 0
I2144(4) 0
I2145(8) 27
I2146(443) 0
I2147(0) 0
I2148(443) 0
I2149(0) 0
I2150(443) 0
I2151(0) 0
I2152(4) 52
I2153(8) 0
I2154(443) 2
I2155(0) 0
I2156(443) 0
I2157(0) 0
I2158(443) 0
I2159(0) 0
I2160(4) 0
I2161(8) 1
I2162(443) 0
I2163(0) 0
I2164(443) 0
I2165(0) 0
I2166(443) 0
I2167(0) 0
I2168(4) 205
I2169(8) 0
I2170(443) 3
I2171(0) 0
I2172(443) 0
I2173(0) 0
I2174(443) 1
I2175(0) 0
I2176(4) 33
I2177(8) 10
I2178(443) 1
I2179(0) 0
I2180(443) 0
I2181(0) 0
I2182(443) 0
I2183(0) 0
I2184(4) 0
I2185(8) 0
I2186(403) 0
I2187(0) 0
I2188(403) 0
I2189(0) 0
I2190(403) 0
I2191(0) 0
I2192(4) 32
I2193(8) 0
I2194(443) 1
I2195(0) 0
I2196(443) 0
I2197(0) 0
I2198(443) 0
I2199(0) 0
I2200(4) 30
I2201(8) 0
I2202(443) 1
I2203(0) 0
I2204(443) 0
I2205(0) 0
I2206(443) 0
I2207(0) 0
I2208(4) 0
I2209(8) 5
I2210(443) 0
I2211(0) 0
I2212(443) 0
I2213(0) 0
I2214(443) 0
I2215(0) 0
I2216(4) 0
I2217(8) 21
I2218(443) 0
I2219(0) 0
I2220(443) 0
I2221(0) 0
I2222(443) 0
I2223(0) 0
I2224(4) 0
I2225(8) 9
I2226(443) 0
I2227(0) 0
I2228(443) 0
I2229(0) 0
I2230(443) 0
I2231(0) 0
I2232(4) 0
I2233(8) 12
I2234(443) 0
I2235(0) 0
I2236(443) 0
I2237(0) 0
I2238(443) 0
I2239(0) 0
I2240(4) 274
I2241(8) 0
I2242(443) 13
I2243(0) 0
I2244(443) 0
I2245(0) 0
I2246(443) 0
I2247(0) 0
I2248(4) 67
I2249(8) 1
I2250(443) 2
I2251(0) 0
I2252(443) 0
I2253(0) 0
I2254(443) 0
I2255(0) 0
I2256(4) 65
I2257(8) 0
I2258(443) 2
I2259(0) 0
I2260(443) 0
I2261(0) 0
I2262(443) 0
I2263(0) 0
I2264(4) 30
I2265(8) 24
I2266(443) 1
I2267(0) 0
I2268(443) 0
I2269(0) 0
I2270(443) 0
I2271(0) 0
I2272(4) 33
I2273(8) 15
I2274(443) 1
I2275(0) 0
I2276(443) 0
I2277(0) 0
I2278(443) 0
I2279(0) 0
I2280(4) 0
I2281(8) 17
I2282(443) 0
I2283(0) 0
I2284(443) 0
I2285(0) 0
I2286(443) 0
I2287(0) 0
I2288(4) 31
I2289(8) 0
I2290(443) 1
I2291(0) 0
I2292(443) 0
I2293(0) 0
I2294(443) 0
I2295(0) 0
I2296(4) 33
I2297(8) 1
I2298(443) 1
I2299(0) 0
I2300(443) 0
I2301(0) 0
I2302(443) 0
I2303(0) 0
I2304(4) 181
I2305(8) 0
I2306(443) 6
I2307(0) 0
I2308(443) 0
I2309(0) 0
I2310(443) 0
I2311(0) 0
I2312(4) 33
I2313(8) 6
I2314(443) 1
I2315(0) 0
I2316(443) 0
I2317(0) 0
I2318(443) 0
I2319(0) 0
I2320(4) 0
I2321(8) 11
I2322(443) 0
I2323(0) 0
I2324(443) 0
I2325(0) 0
I2326(443) 0
I2327(0) 0
I2328(4) 67
I2329(8) 12
I2330(443) 2
I2331(0) 0
I2332(443) 0
I2333(0) 0
I2334(443) 0
I2335(0) 0
I2336(4) 33
I2337(8) 2
I2338(443) 1
I2339(0) 0
I2340(443) 0
I2341(0) 0
I2342(443) 0
I2343(0) 0
I2344(4) 32
I2345(8) 0
I2346(443) 1
I2347(0) 0
I2348(443) 0
I2349(0) 0
I2350(443) 0
I2351(0) 0
I2352(4) 0
I2353(8) 0
I2354(403) 0
I2355(0) 0
I2356(403) 0
I2357(0) 0
I2358(403) 0
I2359(0) 0
I2360(4) 0
I2361(8) 13
I2362(443) 0
I2363(0) 0
I2364(443) 0
I2365(0) 0
I2366(443) 0
I2367(0) 0
I2368(4) 0
I2369(8) 1
I2370(443) 0
I2371(0) 0
I2372(443) 0
I2373(0) 0
I2374(443) 0
I2375(0) 0
I2376(4) 0
I2377(8) 16
I2378(443) 0
I2379(0) 0
I2380(443) 0
I2381(0) 0
I2382(443) 0
I2383(0) 0
I2384(4) 0
I2385(8) 24
I2386(443) 0
I2387(0) 0
I2388(443) 0
I2389(0) 0
I2390(443) 0
I2391(0) 0
I2392(4) 0
I2393(8) 1
I2394(443) 0
I2395(0) 0
I2396(443) 0
I2397(0) 0
I2398(443) 0
I2399(0) 0
I2400(4) 69
I2401(8) 0
I2402(443) 6
I2403(0) 0
I2404(443) 0
I2405(0) 0
I2406(443) 0
I2407(0) 0
I2408(4) 33
I2409(8) 0
I2410(443) 1
I2411(0) 0
I2412(443) 0
I2413(0) 0
I2414(443) 0
I2415(0) 0
I2416(4) 0
I2417(8) 19
I2418(443) 0
I2419(0) 0
I2420(443) 0
I2421(0) 0
I2422(443) 0
I2423(0) 0
I2424(4) 33
I2425(8) 3
I2426(443) 1
I2427(0) 0
I2428(443) 0
I2429(0) 0
I2430(443) 0
I2431(0) 0
I2432(4) 32
I2433(8) 0
I2434(443) 1
I2435(0) 0
I2436(443) 0
I2437(0) 0
I2438(443) 0
I2439(0) 0
I2440(4) 32
I2441(8) 0
I2442(443) 1
I2443(0) 0
I2444(443) 0
I2445(0) 0
I2446(443) 0
I2447(0) 0
I2448(4) 50
I2449(8) 0
I2450(443) 2
I2451(0) 0
I2452(443) 0
I2453(0) 0
I2454(443) 0
I2455(0) 0
I2456(4) 48
I2457(8) 0
I2458(443) 2
I2459(0) 0
I2460(443) 0
I2461(0) 0
I2462(443) 0
I2463(0) 0
I2464(4) 0
I2465(8) 13
I2466(443) 0
I2467(0) 0
I2468(443) 0
I2469(0) 0
I2470(443) 0
I2471(0) 0
I2472(4) 0
I2473(8) 16
I2474(443) 0
I2475(0) 0
I2476(443) 0
I2477(0) 0
I2478(443) 0
I2479(0) 0
I2480(4) 0
I2481(8) 19
I2482(443) 0
I2483(0) 0
I2484(443) 0
I2485(0) 0
I2486(443) 0
I2487(0) 0
I2488(4) 67
I2489(8) 7
I2490(443) 2
I2491(0) 0
I2492(443) 0
I2493(0) 0
I2494(443) 0
I2495(0) 0
I2496(4) 27
I2497(8) 0
I2498(443) 1
I2499(0) 0
I2500(443) 0
I2501(0) 0
I2502(443) 0
I2503(0) 0
I2504(4) 30
I2505(8) 0
I2506(443) 1
I2507(0) 0
I2508(443) 0
I2509(0) 0
I2510(443) 0
I2511(0) 0
I2512(4) 0
I2513(8) 13
I2514(443) 0
I2515(0) 0
I2516(443) 0
I2517(0) 0
I2518(443) 0
I2519(0) 0
I2520(4) 0
I2521(8) 0
I2522(403) 0
I2523(0) 0
I2524(403) 0
I2525(0) 0
I2526(403) 0
I2527(0) 0
I2528(4) 23
I2529(8) 0
I2530(443) 1
I2531(0) 0
I2532(443) 0
I2533(0) 0
I2534(443) 0
I2535(0) 0
I2536(4) 0
I2537(8) 1
I2538(443) 0
I2539(0) 0
I2540(443) 0
I2541(0) 0
I2542(443) 0
I2543(0) 0
I2544(4) 33
I2545(8) 2
I2546(443) 1
I2547(0) 0
I2548(443) 0
I2549(0) 0
I2550(443) 0
I2551(0) 0
I2552(4) 0
I2553(8) 9
I2554(443) 0
I2555(0) 0
I2556(443) 0
I2557(0) 0
I2558(443) 0
I2559(0) 0
I2560(4) 20
I2561(8) 0
I2562(443) 4
I2563(0) 0
I2564(443) 0
I2565(0) 0
I2566(443) 0
I2567(0) 0
I2568(4) 24
I2569(8) 0
I2570(443) 1
I2571(0) 0
I2572(443) 0
I2573(0) 0
I2574(443) 0
I2575(0) 0
I2576(4) 0
I2577(8) 5
I2578(443) 0
I2579(0) 0
I2580(443) 0
I2581(0) 0
I2582(443) 0
I2583(0) 0
I2584(4) 0
I2585(8) 1
I2586(443) 0
I2587(0) 0
I2588(443) 0
I2589(0) 0
I2590(443) 0
I2591(0) 0
I2592(4) 0
I2593(8) 21
I2594(443) 0
I2595(0) 0
I2596(443) 0
I2597(0) 0
I2598(443) 0
I2599(0) 0
I2600(4) 0
I2601(8) 16
I2602(443) 0
I2603(0) 0
I2604(443) 0
I2605(0) 0
I2606(443) 0
I2607(0) 0
I2608(4) 0
I2609(8) 8
I2610(443) 0
I2611(0) 0
I2612(443) 0
I2613(0) 0
I2614(443) 0
I2615(0) 0
I2616(4) 12
I2617(8) 0
I2618(443) 1
I2619(0) 0
I2620(443) 0
I2621(0) 0
I2622(443) 0
I2623(0) 0
I2624(4) 0
I2625(8) 3
I2626(443) 0
I2627(0) 0
I2628(443) 0
I2629(0) 0
I2630(443) 0
I2631(0) 0
I2632(4) 0
I2633(8) 3
I2634(443) 0
I2635(0) 0
I2636(443) 0
I2637(0) 0
I2638(443) 0
I2639(0) 0
I2640(4) 0
I2641(8) 15
I2642(443) 0
I2643(0) 0
I2644(443) 0
I2645(0) 0
I2646(443) 0
I2647(0) 0
I2648(4) 0
I2649(8) 12
I2650(443) 0
I2651(0) 0
I2652(443) 0
I2653(0) 0
I2654(443) 0
I2655(0) 0
I2656(4) 0
I2657(8) 3
I2658(443) 0
I2659(0) 0
I2660(443) 0
I2661(0) 0
I2662(443) 0
I2663(0) 0
I2664(4) 0
I2665(8) 5
I2666(443) 0
I2667(0) 0
I2668(443) 0
I2669(0) 0
I2670(443) 0
I2671(0) 0
I2672(4) 0
I2673(8) 1
I2674(443) 0
I2675(0) 0
I2676(443) 0
I2677(0) 0
I2678(443) 0
I2679(0) 0
I2680(4) 23
I2681(8) 0
I2682(443) 1
I2683(0) 0
I2684(443) 0
I2685(0) 0
I2686(443) 0
I2687(0) 0
I2688(4) 0
I2689(8) 0
I2690(403) 0
I2691(0) 0
I2692(403) 0
I2693(0) 0
I2694(403) 0
I2695(0) 0
I2696(4) 0
I2697(8) 1
I2698(443) 0
I2699(0) 0
I2700(443) 0
I2701(0) 0
I2702(443) 0
I2703(0) 0
I2704(4) 16
I2705(8) 0
I2706(443) 1
I2707(0) 0
I2708(443) 0
I2709(0) 0
I2710(443) 0
I2711(0) 0
I2712(4) 0
I2713(8) 14
I2714(443) 0
I2715(0) 0
I2716(443) 0
I2717(0) 0
I2718(443) 0
I2719(0) 0
I2720(4) 46
I2721(8) 0
I2722(443) 7
I2723(0) 0
I2724(443) 0
I2725(0) 0
I2726(443) 0
I2727(0) 0
I2728(4) 32
I2729(8) 0
I2730(443) 1
I2731(0) 0
I2732(443) 0
I2733(0) 0
I2734(443) 0
I2735(0) 0
I2736(4) 0
I2737(8) 3
I2738(443) 0
I2739(0) 0
I2740(443) 0
I2741(0) 0
I2742(443) 0
I2743(0) 0
I2744(4) 0
I2745(8) 21
I2746(443) 0
I2747(0) 0
I2748(443) 0
I2749(0) 0
I2750(443) 0
I2751(0) 0
I2752(4) 0
I2753(8) 17
I2754(443) 0
I2755(0) 0
I2756(443) 0
I2757(0) 0
I2758(443) 0
I2759(0) 0
I2760(4) 0
I2761(8) 9
I2762(443) 0
I2763(0) 0
I2764(443) 0
I2765(0) 0
I2766(443) 0
I2767(0) 0
I2768(4) 0
I2769(8) 9
I2770(443) 0
I2771(0) 0
I2772(443) 0
I2773(0) 0
I2774(443) 0
I2775(0) 0
I2776(4) 0
I2777(8) 24
I2778(443) 0
I2779(0) 0
I2780(443) 0
I2781(0) 0
I2782(443) 0
I2783(0) 0
I2784(4) 0
I2785(8) 11
I2786(443) 0
I2787(0) 0
I2788(443) 0
I2789(0) 0
I2790(443) 0
I2791(0) 0
I2792(4) 0
I2793(8) 15
I2794(443) 0
I2795(0) 0
I2796(443) 0
I2797(0) 0
I2798(443) 0
I2799(0) 0
I2800(4) 0
I2801(8) 1
I2802(443) 0
I2803(0) 0
I2804(443) 0
I2805(0) 0
I2806(443) 0
I2807(0) 0
I2808(4) 33
I2809(8) 5
I2810(443) 1
I2811(0) 0
I2812(443) 0
I2813(0) 0
I2814(443) 0
I2815(0) 0
I2816(4) 0
I2817(8) 1
I2818(443) 0
I2819(0) 0
I2820(443) 0
I2821(0) 0
I2822(443) 0
I2823(0) 0
I2824(4) 0
I2825(8) 21
I2826(443) 0
I2827(0) 0
I2828(443) 0
I2829(0) 0
I2830(443) 0
I2831(0) 0
I2832(4) 0
I2833(8) 16
I2834(443) 0
I2835(0) 0
I2836(443) 0
I2837(0) 0
I2838(443) 0
I2839(0) 0
I2840(4) 0
I2841(8) 1
I2842(443) 0
I2843(0) 0
I2844(443) 0
I2845(0) 0
I2846(443) 0
I2847(0) 0
I2848(4) 0
I2849(8) 1
I2850(443) 0
I2851(0) 0
I2852(443) 0
I2853(0) 0
I2854(443) 0
I2855(0) 0
I2856(4) 0
I2857(8) 0
I2858(403) 0
I2859(0) 0
I2860(403) 0
I2861(0) 0
I2862(403) 0
I2863(0) 0
I2864(4) 0
I2865(8) 19
I2866(443) 0
I2867(0) 0
I2868(443) 0
I2869(0) 0
I2870(443) 0
I2871(0) 0
I2872(4) 0
I2873(8) 5
I2874(443) 0
I2875(0) 0
I2876(443) 0
I2877(0) 0
I2878(443) 0
I2879(0) 0
I2880(4) 67
I2881(8) 0
I2882(443) 5
I2883(0) 0
I2884(443) 0
I2885(0) 0
I2886(443) 0
I2887(0) 0
I2888(4) 33
I2889(8) 10
I2890(443) 1
I2891(0) 0
I2892(443) 0
I2893(0) 0
I2894(443) 0
I2895(0) 0
I2896(4) 33
I2897(8) 2
I2898(443) 1
I2899(0) 0
I2900(443) 0
I2901(0) 0
I2902(443) 0
I2903(0) 0
I2904(4) 33
I2905(8) 7
I2906(443) 1
I2907(0) 0
I2908(443) 0
I2909(0) 0
I2910(443) 0
I2911(0) 0
I2912(4) 51
I2913(8) 0
I2914(443) 2
I2915(0) 0
I2916(443) 0
I2917(0) 0
I2918(443) 0
I2919(0) 0
I2920(4) 53
I2921(8) 0
I2922(443) 2
I2923(0) 0
I2924(443) 0
I2925(0) 0
I2926(443) 0
I2927(0) 0
I2928(4) 33
I2929(8) 14
I2930(443) 1
I2931(0) 0
I2932(443) 0
I2933(0) 0
I2934(443) 0
I2935(0) 0
I2936(4) 208
I2937(8) 0
I2938(443) 3
I2939(0) 0
I2940(443) 0
I2941(0) 0
I2942(443) 1
I2943(0) 0
I2944(4) 33
I2945(8) 2
I2946(443) 1
I2947(0) 0
I2948(443) 0
I2949(0) 0
I2950(443) 0
I2951(0) 0
I2952(4) 0
I2953(8) 8
I2954(443) 0
I2955(0) 0
I2956(443) 0
I2957(0) 0
I2958(443) 0
I2959(0) 0
I2960(4) 19
I2961(8) 0
I2962(443) 1
I2963(0) 0
I2964(443) 0
I2965(0) 0
I2966(443) 0
I2967(0) 0
I2968(4) 67
I2969(8) 0
I2970(443) 2
I2971(0) 0
I2972(443) 0
I2973(0) 0
I2974(443) 0
I2975(0) 0
I2976(4) 0
I2977(8) 3
I2978(443) 0
I2979(0) 0
I2980(443) 0
I2981(0) 0
I2982(443) 0
I2983(0) 0
I2984(4) 0
I2985(8) 9
I2986(443) 0
I2987(0) 0
I2988(443) 0
I2989(0) 0
I2990(443) 0
I2991(0) 0
I2992(4) 0
I2993(8) 24
I2994(443) 0
I2995(0) 0
I2996(443) 0
I2997(0) 0
I2998(443) 0
I2999(0) 0
I3000(4) 33
I3001(8) 2
I3002(443) 1
I3003(0) 0
I3004(443) 0
I3005(0) 0
I3006(443) 0
I3007(0) 0
I3008(4) 16
I3009(8) 0
I3010(443) 1
I3011(0) 0
I3012(443) 0
I3013(0) 0
I3014(443) 0
I3015(0) 0
I3016(4) 0
I3017(8) 19
I3018(443) 0
I3019(0) 0
I3020(443) 0
I3021(0) 0
I3022(443) 0
I3023(0) 0
I3024(4) 0
I3025(8) 0
I3026(403) 0
I3027(0) 0
I3028(403) 0
I3029(0) 0
I3030(403) 0
I3031(0) 0
I3032(4) 0
I3033(8) 1
I3034(443) 0
I3035(0) 0
I3036(443) 0
I3037(0) 0
I3038(443) 0
I3039(0) 0
I3040(4) 12
I3041(8) 0
I3042(443) 4
I3043(0) 0
I3044(443) 0
I3045(0) 0
I3046(443) 0
I3047(0) 0
I3048(4) 23
I3049(8) 0
I3050(443) 1
I3051(0) 0
I3052(443) 0
I3053(0) 0
I3054(443) 0
I3055(0) 0
I3056(4) 0
I3057(8) 13
I3058(443) 0
I3059(0) 0
I3060(443) 0
I3061(0) 0
I3062(443) 0
I3063(0) 0
I3064(4) 0
I3065(8) 1
I3066(443) 0
I3067(0) 0
I3068(443) 0
I3069(0) 0
I3070(443) 0
I3071(0) 0
I3072(4) 23
I3073(8) 0
I3074(443) 1
I3075(0) 0
I3076(443) 0
I3077(0) 0
I3078(443) 0
I3079(0) 0
I3080(4) 0
I3081(8) 1
I3082(443) 0
I3083(0) 0
I3084(443) 0
I3085(0) 0
I3086(443) 0
I3087(0) 0
I3088(4) 0
I3089(8) 11
I3090(443) 0
I3091(0) 0
I3092(443) 0
I3093(0) 0
I3094(443) 0
I3095(0) 0
I3096(4) 0
I3097(8) 18
I3098(443) 0
I3099(0) 0
I3100(443) 0
I3101(0) 0
I3102(443) 0
I3103(0) 0
I3104(4) 0
I3105(8) 1
I3106(443) 0
I3107(0) 0
I3108(443) 0
I3109(0) 0
I3110(443) 0
I3111(0) 0
I3112(4) 0
I3113(8) 1
I3114(443) 0
I3115(0) 0
I3116(443) 0
I3117(0) 0
I3118(443) 0
I3119(0) 0
I3120(4) 26
I3121(8) 0
I3122(443) 1
I3123(0) 0
I3124(443) 0
I3125(0) 0
I3126(443) 0
I3127(0) 0
I3128(4) 0
I3129(8) 12
I3130(443) 0
I3131(0) 0
I3132(443) 0
I3133(0) 0
I3134(443) 0
I3135(0) 0
I3136(4) 0
I3137(8) 1
I3138(443) 0
I3139(0) 0
I3140(443) 0
I3141(0) 0
I3142(443) 0
I3143(0) 0
I3144(4) 0
I3145(8) 12
I3146(443) 0
I3147(0) 0
I3148(443) 0
I3149(0) 0
I3150(443) 0
I3151(0) 0
I3152(4) 0
I3153(8) 1
I3154(443) 0
I3155(0) 0
I3156(443) 0
I3157(0) 0
I3158(443) 0
I3159(0) 0
I3160(4) 0
I3161(8) 9
I3162(443) 0
I3163(0) 0
I3164(443) 0
I3165(0) 0
I3166(443) 0
I3167(0) 0
I3168(4) 0
I3169(8) 14
I3170(443) 0
I3171(0) 0
I3172(443) 0
I3173(0) 0
I3174(443) 0
I3175(0) 0
I3176(4) 0
I3177(8) 5
I3178(443) 0
I3179(0) 0
I3180(443) 0
I3181(0) 0
I3182(443) 0
I3183(0) 0
I3184(4) 0
I3185(8) 1
I3186(443) 0
I3187(0) 0
I3188(443) 0
I3189(0) 0
I3190(443) 0
I3191(0) 0
I3192(4) 0
I3193(8) 0
I3194(403) 0
I3195(400) 154
I3196(403) 0
I3197(400) 0
I3198(403) 0
I3199(400) 4
